letting n =  10
letting blocks =  [[1, 1], [1, 3], [1, 4], [2, 2], [2, 9], [2, 10], [3, 1], [3, 10], [4, 2], [4, 5], [4, 6], [5, 1], [5, 2], [5, 3], [5, 5], [6, 1], [6, 5], [6, 6], [6, 7], [6, 9], [6, 10], [7, 2], [7, 4], [7, 6], [7, 7], [7, 10], [8, 2], [8, 3], [8, 7], [8, 10], [9, 2], [9, 4], [9, 5], [9, 6], [9, 8], [9, 10], [10, 3], [10, 4], [10, 7], [10, 8]]
